param n := 250;
param c := 150;
param : V : p w :=
   0	  99	  73
   1	  10	  39
   2	  77	  49
   3	   9	  79
   4	   2	  54
   5	   6	  57
   6	   4	  98
   7	  25	  69
   8	  24	  67
   9	  68	  49
  10	  59	  38
  11	  95	  34
  12	  46	  96
  13	  32	  27
  14	  95	  92
  15	  30	  82
  16	  64	  69
  17	  87	  45
  18	  70	  69
  19	  40	  20
  20	   9	  75
  21	  50	  97
  22	  19	  51
  23	  85	  70
  24	  17	  29
  25	  81	  91
  26	  95	  98
  27	  86	  77
  28	  55	  48
  29	  47	  45
  30	  14	  43
  31	  57	  61
  32	  97	  36
  33	  66	  82
  34	  51	  89
  35	  11	  94
  36	  26	  26
  37	  25	  35
  38	  75	  58
  39	  45	  58
  40	  48	  57
  41	   7	  46
  42	  42	  44
  43	  33	  91
  44	  66	  49
  45	 100	  52
  46	  34	  65
  47	  81	  42
  48	  66	  33
  49	  98	  60
  50	   3	  37
  51	  42	  57
  52	   7	  91
  53	  88	  52
  54	  98	  95
  55	  24	  84
  56	  77	  72
  57	  13	  75
  58	  72	  89
  59	   2	  81
  60	  42	  67
  61	  41	  74
  62	   9	  87
  63	  60	  60
  64	   5	  32
  65	  80	  76
  66	  49	  85
  67	  58	  59
  68	   1	  62
  69	  81	  39
  70	   8	  64
  71	  30	  52
  72	   3	  88
  73	  41	  45
  74	  66	  29
  75	  70	  88
  76	  23	  85
  77	   9	  54
  78	  26	  40
  79	  73	  57
  80	  17	  91
  81	  27	  55
  82	  28	  60
  83	   2	  37
  84	  86	  86
  85	  76	  21
  86	  43	  21
  87	  41	  43
  88	  71	  77
  89	  96	  75
  90	  77	  92
  91	  23	  33
  92	  82	  59
  93	  77	  74
  94	  10	  40
  95	  54	  36
  96	  94	  62
  97	  80	  21
  98	  41	  56
  99	  45	  38
 100	  96	  22
 101	  26	  45
 102	  25	  94
 103	  56	  68
 104	  35	  83
 105	  82	  86
 106	  42	  75
 107	   3	  21
 108	  11	  40
 109	  29	  44
 110	  67	  74
 111	  91	  52
 112	   5	  61
 113	  52	  95
 114	  92	  20
 115	  78	  79
 116	  96	  76
 117	  87	  32
 118	  89	  21
 119	  84	  91
 120	  77	  83
 121	  66	  39
 122	  91	  31
 123	  83	  81
 124	  11	  41
 125	  47	  90
 126	  61	  74
 127	  16	 100
 128	  81	  38
 129	   3	  33
 130	  41	  74
 131	  95	  40
 132	  89	  80
 133	  13	  39
 134	  97	  22
 135	  24	  46
 136	  89	  58
 137	  57	  65
 138	  31	  67
 139	  70	  37
 140	  64	  82
 141	  31	  64
 142	  35	  26
 143	  53	  80
 144	  35	  74
 145	  30	  20
 146	  68	  62
 147	  28	  82
 148	  44	  40
 149	  38	  28
 150	  62	  72
 151	  62	  45
 152	  13	  62
 153	  16	  72
 154	  32	  89
 155	  25	  31
 156	  18	  92
 157	  35	  63
 158	  20	  89
 159	  53	  33
 160	  54	  25
 161	  45	  54
 162	  72	  66
 163	  50	 100
 164	  55	  20
 165	 100	  90
 166	  75	  87
 167	  72	  48
 168	  35	  28
 169	  61	  46
 170	  90	  76
 171	  74	  50
 172	  97	  66
 173	  61	  30
 174	  16	  26
 175	  51	  23
 176	  51	  40
 177	  24	  70
 178	   7	  57
 179	  50	  92
 180	   9	  52
 181	  25	  54
 182	   1	  27
 183	  64	  58
 184	  36	  66
 185	  21	  65
 186	  20	  93
 187	  79	  83
 188	  87	  37
 189	  66	  62
 190	  19	  94
 191	  24	  29
 192	   1	  66
 193	  15	  98
 194	  57	  20
 195	  57	  66
 196	  25	  42
 197	  52	  52
 198	  18	  90
 199	  63	  22
 200	  78	  30
 201	  13	  34
 202	  49	  65
 203	  44	  81
 204	  30	  90
 205	  44	  44
 206	  92	  88
 207	   5	  51
 208	  13	  97
 209	   3	  79
 210	  26	  58
 211	  81	  46
 212	  62	  65
 213	  41	  40
 214	  27	  68
 215	  88	  64
 216	  75	  34
 217	  38	  59
 218	  18	  99
 219	  46	  82
 220	   7	  86
 221	  98	  88
 222	  45	  52
 223	  82	  76
 224	  77	  76
 225	  67	  50
 226	  40	  51
 227	  87	  92
 228	   3	  59
 229	  98	  22
 230	  33	  60
 231	  43	  69
 232	  20	  45
 233	  35	  66
 234	  42	  50
 235	  56	  62
 236	  43	  59
 237	  61	  90
 238	  39	  54
 239	  71	  55
 240	  94	  92
 241	  28	  23
 242	  26	  97
 243	  80	  73
 244	  19	  39
 245	  82	  88
 246	  94	  34
 247	  32	  92
 248	  51	  74
 249	  65	  90
;

set E :=
   0	   7
   0	  12
   0	  14
   0	  19
   0	  23
   0	  27
   0	  56
   0	  64
   0	  65
   0	  66
   0	  76
   0	  89
   0	  92
   0	 101
   0	 103
   0	 116
   0	 119
   0	 122
   0	 126
   0	 128
   0	 129
   0	 137
   0	 140
   0	 165
   0	 173
   0	 190
   0	 221
   0	 228
   0	 248
   1	   3
   1	   5
   1	  10
   1	  22
   1	  26
   1	  35
   1	  77
   1	  83
   1	  90
   1	  92
   1	 102
   1	 112
   1	 115
   1	 119
   1	 146
   1	 150
   1	 167
   1	 171
   1	 173
   1	 182
   1	 183
   1	 190
   1	 197
   1	 204
   1	 209
   1	 216
   1	 221
   1	 225
   1	 226
   1	 228
   1	 237
   2	   4
   2	  35
   2	  45
   2	  71
   2	  85
   2	  87
   2	 104
   2	 106
   2	 113
   2	 129
   2	 148
   2	 153
   2	 154
   2	 155
   2	 160
   2	 170
   2	 171
   2	 180
   2	 189
   2	 199
   2	 208
   2	 217
   2	 223
   2	 232
   2	 247
   2	 248
   3	  29
   3	  31
   3	  39
   3	  42
   3	  55
   3	  57
   3	  70
   3	  74
   3	  81
   3	 115
   3	 131
   3	 139
   3	 145
   3	 149
   3	 157
   3	 163
   3	 178
   3	 182
   3	 187
   3	 189
   3	 195
   3	 209
   3	 213
   3	 214
   3	 232
   3	 239
   3	 243
   4	  13
   4	  18
   4	  32
   4	  35
   4	  41
   4	  44
   4	  67
   4	  80
   4	  95
   4	  98
   4	 115
   4	 149
   4	 178
   4	 185
   4	 234
   4	 243
   5	  14
   5	  25
   5	  29
   5	  30
   5	  37
   5	  45
   5	  57
   5	  69
   5	  78
   5	  81
   5	  82
   5	  99
   5	 104
   5	 105
   5	 111
   5	 134
   5	 145
   5	 163
   5	 164
   5	 175
   5	 178
   5	 182
   5	 196
   5	 200
   5	 202
   5	 204
   5	 214
   5	 217
   5	 218
   5	 224
   5	 242
   6	  21
   6	  33
   6	  38
   6	  45
   6	  50
   6	  55
   6	  61
   6	  68
   6	  69
   6	  90
   6	  94
   6	 113
   6	 119
   6	 122
   6	 133
   6	 143
   6	 144
   6	 154
   6	 156
   6	 161
   6	 164
   6	 172
   6	 183
   6	 194
   6	 199
   6	 207
   6	 209
   6	 218
   6	 223
   7	   9
   7	  15
   7	  33
   7	  35
   7	  45
   7	  46
   7	  65
   7	  77
   7	  82
   7	 108
   7	 115
   7	 124
   7	 127
   7	 144
   7	 152
   7	 159
   7	 165
   7	 166
   7	 185
   7	 187
   7	 199
   7	 201
   7	 236
   7	 239
   7	 244
   8	  18
   8	  28
   8	  30
   8	  34
   8	  40
   8	  44
   8	  49
   8	  56
   8	  61
   8	  66
   8	  67
   8	  68
   8	  70
   8	  71
   8	  86
   8	  88
   8	  92
   8	 107
   8	 122
   8	 130
   8	 132
   8	 133
   8	 145
   8	 156
   8	 158
   8	 163
   8	 165
   8	 166
   8	 168
   8	 184
   8	 192
   8	 206
   8	 210
   8	 222
   8	 233
   8	 240
   8	 247
   8	 249
   9	  26
   9	  64
   9	  73
   9	  76
   9	  91
   9	 105
   9	 111
   9	 115
   9	 141
   9	 159
   9	 173
   9	 188
   9	 196
   9	 198
   9	 211
   9	 224
   9	 233
   9	 244
  10	  19
  10	  22
  10	  53
  10	  62
  10	  63
  10	  87
  10	  92
  10	  95
  10	 102
  10	 123
  10	 130
  10	 142
  10	 161
  10	 187
  10	 193
  10	 202
  10	 203
  10	 212
  10	 214
  10	 225
  10	 232
  10	 248
  11	  13
  11	  21
  11	  39
  11	  50
  11	  70
  11	  71
  11	  78
  11	  80
  11	  81
  11	  82
  11	 129
  11	 130
  11	 139
  11	 141
  11	 153
  11	 158
  11	 195
  11	 214
  11	 223
  11	 236
  11	 240
  12	  25
  12	  26
  12	  28
  12	  37
  12	  44
  12	  65
  12	  66
  12	  75
  12	  76
  12	  84
  12	  90
  12	  94
  12	  97
  12	 113
  12	 123
  12	 132
  12	 135
  12	 136
  12	 146
  12	 154
  12	 160
  12	 170
  12	 181
  12	 184
  12	 200
  12	 204
  12	 208
  12	 225
  12	 229
  12	 233
  12	 247
  13	  19
  13	  28
  13	  30
  13	  31
  13	  33
  13	  38
  13	  39
  13	  40
  13	  42
  13	  67
  13	 101
  13	 121
  13	 135
  13	 151
  13	 179
  13	 183
  13	 197
  13	 201
  13	 208
  13	 213
  13	 226
  13	 231
  14	  17
  14	  20
  14	  46
  14	  51
  14	  83
  14	  98
  14	 104
  14	 106
  14	 111
  14	 116
  14	 143
  14	 167
  14	 176
  14	 183
  14	 195
  14	 208
  14	 224
  14	 236
  15	  27
  15	  43
  15	  53
  15	  85
  15	  87
  15	  88
  15	  94
  15	  95
  15	 102
  15	 104
  15	 105
  15	 111
  15	 120
  15	 125
  15	 127
  15	 129
  15	 132
  15	 144
  15	 172
  15	 202
  15	 208
  15	 209
  16	  33
  16	  34
  16	  40
  16	  43
  16	  55
  16	  59
  16	  79
  16	  87
  16	 126
  16	 127
  16	 128
  16	 148
  16	 161
  16	 167
  16	 168
  16	 170
  16	 176
  16	 177
  16	 178
  16	 181
  16	 185
  16	 187
  16	 203
  16	 207
  16	 208
  16	 226
  16	 235
  16	 237
  16	 248
  17	  20
  17	  29
  17	  34
  17	  44
  17	  58
  17	  65
  17	  75
  17	  86
  17	  98
  17	 119
  17	 132
  17	 134
  17	 145
  17	 163
  17	 168
  17	 180
  17	 181
  17	 187
  17	 201
  17	 224
  17	 231
  18	  20
  18	  35
  18	  42
  18	  44
  18	  54
  18	  59
  18	  74
  18	  75
  18	  77
  18	  83
  18	  89
  18	 100
  18	 102
  18	 116
  18	 131
  18	 133
  18	 138
  18	 203
  18	 212
  18	 219
  18	 221
  18	 222
  18	 225
  18	 230
  18	 232
  18	 244
  18	 247
  19	  35
  19	  36
  19	  44
  19	  51
  19	  54
  19	  67
  19	  73
  19	  77
  19	 114
  19	 119
  19	 136
  19	 147
  19	 161
  19	 162
  19	 166
  19	 174
  19	 175
  19	 177
  19	 185
  19	 186
  19	 187
  19	 193
  19	 194
  19	 202
  19	 216
  19	 219
  19	 236
  20	  26
  20	  37
  20	  38
  20	  54
  20	  59
  20	  79
  20	  84
  20	  98
  20	 106
  20	 145
  20	 157
  20	 166
  20	 168
  20	 175
  20	 185
  20	 202
  20	 206
  20	 211
  20	 216
  20	 229
  20	 236
  20	 241
  21	  68
  21	  74
  21	  78
  21	  94
  21	  95
  21	 110
  21	 111
  21	 117
  21	 125
  21	 128
  21	 132
  21	 139
  21	 140
  21	 144
  21	 160
  21	 164
  21	 171
  21	 172
  21	 174
  21	 182
  21	 192
  21	 203
  22	  40
  22	  53
  22	  57
  22	  60
  22	  67
  22	  83
  22	  88
  22	  89
  22	 103
  22	 108
  22	 111
  22	 115
  22	 125
  22	 147
  22	 150
  22	 178
  22	 180
  22	 192
  22	 195
  22	 225
  22	 230
  22	 234
  22	 237
  23	  28
  23	  31
  23	  53
  23	  58
  23	  79
  23	  84
  23	 117
  23	 124
  23	 126
  23	 149
  23	 156
  23	 165
  23	 168
  23	 172
  23	 173
  23	 177
  23	 182
  23	 187
  23	 189
  23	 195
  23	 196
  23	 203
  23	 205
  23	 213
  23	 226
  23	 230
  23	 239
  23	 246
  24	  42
  24	  67
  24	  71
  24	  74
  24	  76
  24	  78
  24	  83
  24	  89
  24	  91
  24	  95
  24	  97
  24	 106
  24	 116
  24	 145
  24	 168
  24	 169
  24	 195
  24	 201
  24	 205
  24	 236
  25	  30
  25	  33
  25	  39
  25	  56
  25	  75
  25	  79
  25	  83
  25	  87
  25	  91
  25	 129
  25	 132
  25	 139
  25	 148
  25	 160
  25	 167
  25	 190
  25	 195
  25	 205
  25	 220
  25	 223
  25	 231
  25	 239
  26	  27
  26	  30
  26	  70
  26	  76
  26	  80
  26	  84
  26	  87
  26	  88
  26	 102
  26	 103
  26	 112
  26	 121
  26	 137
  26	 140
  26	 142
  26	 146
  26	 153
  26	 159
  26	 161
  26	 164
  26	 170
  26	 176
  26	 178
  26	 184
  26	 197
  26	 204
  26	 211
  26	 223
  26	 227
  26	 229
  26	 231
  26	 232
  26	 236
  26	 246
  27	  28
  27	  51
  27	  59
  27	  69
  27	  89
  27	  90
  27	  96
  27	 105
  27	 113
  27	 120
  27	 125
  27	 170
  27	 180
  27	 183
  27	 193
  27	 194
  27	 210
  27	 225
  27	 235
  27	 242
  28	  39
  28	  40
  28	  42
  28	  43
  28	  61
  28	  70
  28	  74
  28	  90
  28	  97
  28	 108
  28	 118
  28	 134
  28	 142
  28	 145
  28	 160
  28	 166
  28	 178
  28	 179
  28	 185
  28	 213
  28	 228
  28	 233
  28	 238
  28	 241
  29	  31
  29	  36
  29	  37
  29	  51
  29	  56
  29	  62
  29	  74
  29	  82
  29	  84
  29	 100
  29	 111
  29	 117
  29	 120
  29	 122
  29	 129
  29	 135
  29	 146
  29	 153
  29	 157
  29	 159
  29	 164
  29	 167
  29	 185
  29	 187
  29	 189
  29	 192
  29	 204
  29	 207
  29	 208
  29	 217
  29	 227
  29	 228
  29	 233
  29	 241
  29	 247
  29	 248
  30	  33
  30	  49
  30	  71
  30	 110
  30	 120
  30	 161
  30	 179
  30	 181
  30	 183
  30	 184
  30	 186
  30	 193
  30	 205
  30	 228
  30	 232
  30	 237
  30	 243
  31	  47
  31	  76
  31	  82
  31	  92
  31	 101
  31	 115
  31	 116
  31	 122
  31	 131
  31	 136
  31	 142
  31	 149
  31	 157
  31	 158
  31	 167
  31	 168
  31	 178
  31	 183
  31	 184
  31	 190
  31	 215
  31	 225
  31	 236
  32	  39
  32	  40
  32	  50
  32	  62
  32	  70
  32	  88
  32	  96
  32	 111
  32	 132
  32	 134
  32	 138
  32	 142
  32	 150
  32	 163
  32	 167
  32	 192
  32	 199
  32	 205
  32	 217
  32	 222
  32	 229
  32	 230
  33	  34
  33	  42
  33	  77
  33	  79
  33	  90
  33	 104
  33	 142
  33	 177
  33	 180
  33	 182
  33	 203
  33	 208
  33	 240
  34	  41
  34	  47
  34	  61
  34	  93
  34	 102
  34	 122
  34	 123
  34	 131
  34	 156
  34	 163
  34	 168
  34	 172
  34	 184
  34	 190
  34	 193
  34	 195
  34	 205
  34	 215
  34	 233
  34	 239
  34	 241
  35	  37
  35	  52
  35	  59
  35	  86
  35	 100
  35	 104
  35	 105
  35	 109
  35	 112
  35	 126
  35	 127
  35	 128
  35	 145
  35	 163
  35	 190
  36	  39
  36	  42
  36	  45
  36	  71
  36	  77
  36	  79
  36	  90
  36	  91
  36	  98
  36	 100
  36	 110
  36	 114
  36	 115
  36	 122
  36	 146
  36	 155
  36	 208
  36	 230
  36	 236
  36	 237
  36	 241
  36	 242
  36	 244
  37	  68
  37	  71
  37	  77
  37	  84
  37	 101
  37	 110
  37	 111
  37	 118
  37	 121
  37	 128
  37	 135
  37	 136
  37	 159
  37	 163
  37	 184
  37	 218
  37	 220
  37	 226
  37	 231
  37	 234
  37	 240
  38	  40
  38	  42
  38	  45
  38	  49
  38	  68
  38	  70
  38	  74
  38	  96
  38	  97
  38	 111
  38	 117
  38	 122
  38	 129
  38	 136
  38	 143
  38	 144
  38	 155
  38	 158
  38	 168
  38	 186
  38	 194
  38	 196
  38	 199
  38	 206
  38	 225
  38	 231
  38	 235
  39	  45
  39	  52
  39	  57
  39	  69
  39	  78
  39	  90
  39	  93
  39	 100
  39	 106
  39	 130
  39	 136
  39	 138
  39	 143
  39	 149
  39	 153
  39	 170
  39	 189
  39	 193
  39	 201
  39	 211
  39	 220
  39	 235
  39	 236
  39	 246
  39	 247
  40	  51
  40	  67
  40	  72
  40	 105
  40	 106
  40	 108
  40	 124
  40	 126
  40	 136
  40	 146
  40	 148
  40	 156
  40	 161
  40	 162
  40	 167
  40	 176
  40	 177
  40	 198
  40	 213
  40	 239
  41	  55
  41	  76
  41	  77
  41	 101
  41	 102
  41	 115
  41	 125
  41	 140
  41	 150
  41	 155
  41	 177
  41	 180
  41	 186
  41	 208
  41	 211
  41	 219
  41	 241
  41	 244
  42	  48
  42	 132
  42	 136
  42	 141
  42	 142
  42	 156
  42	 167
  42	 195
  42	 204
  42	 205
  42	 206
  42	 215
  42	 222
  42	 229
  42	 240
  42	 242
  42	 244
  43	  50
  43	  54
  43	  55
  43	  65
  43	  66
  43	  68
  43	  77
  43	 100
  43	 101
  43	 104
  43	 109
  43	 114
  43	 115
  43	 128
  43	 129
  43	 132
  43	 134
  43	 146
  43	 159
  43	 162
  43	 177
  43	 183
  43	 202
  43	 213
  43	 218
  43	 219
  43	 239
  44	  84
  44	  87
  44	 113
  44	 116
  44	 122
  44	 124
  44	 153
  44	 171
  44	 198
  44	 207
  44	 219
  44	 241
  44	 247
  44	 249
  45	  57
  45	  67
  45	  70
  45	  88
  45	  89
  45	 104
  45	 108
  45	 122
  45	 136
  45	 148
  45	 149
  45	 150
  45	 158
  45	 161
  45	 163
  45	 171
  45	 175
  45	 184
  45	 200
  45	 223
  45	 241
  45	 242
  45	 246
  46	  86
  46	  87
  46	  96
  46	 112
  46	 133
  46	 142
  46	 154
  46	 189
  46	 190
  46	 192
  46	 203
  46	 218
  46	 229
  46	 233
  46	 245
  46	 246
  46	 248
  47	  48
  47	  58
  47	  70
  47	  99
  47	 101
  47	 116
  47	 131
  47	 135
  47	 151
  47	 173
  47	 174
  47	 203
  47	 209
  47	 247
  48	  53
  48	  59
  48	  72
  48	  89
  48	 105
  48	 122
  48	 148
  48	 153
  48	 171
  48	 178
  48	 184
  48	 190
  48	 191
  48	 193
  48	 205
  48	 220
  48	 234
  48	 236
  49	  57
  49	  58
  49	  73
  49	  91
  49	 106
  49	 111
  49	 112
  49	 129
  49	 135
  49	 146
  49	 149
  49	 150
  49	 154
  49	 188
  49	 213
  49	 220
  49	 222
  49	 228
  49	 233
  49	 243
  50	  54
  50	  65
  50	  78
  50	  92
  50	  97
  50	 108
  50	 119
  50	 126
  50	 135
  50	 153
  50	 156
  50	 161
  50	 172
  50	 195
  50	 196
  50	 197
  50	 200
  50	 208
  50	 210
  50	 211
  50	 217
  50	 228
  50	 230
  50	 236
  50	 239
  51	  56
  51	  88
  51	 113
  51	 121
  51	 142
  51	 146
  51	 158
  51	 160
  51	 161
  51	 173
  51	 182
  51	 184
  51	 201
  51	 203
  51	 211
  51	 213
  52	  55
  52	  59
  52	  62
  52	  73
  52	  77
  52	  83
  52	  95
  52	 111
  52	 114
  52	 122
  52	 127
  52	 139
  52	 152
  52	 158
  52	 172
  52	 190
  52	 209
  52	 215
  52	 225
  52	 227
  52	 236
  52	 237
  52	 241
  53	  58
  53	  64
  53	  66
  53	  68
  53	  77
  53	  85
  53	  90
  53	  92
  53	  99
  53	 107
  53	 137
  53	 138
  53	 156
  53	 159
  53	 177
  53	 178
  53	 180
  53	 186
  53	 187
  53	 195
  54	  84
  54	  95
  54	 101
  54	 106
  54	 122
  54	 125
  54	 133
  54	 137
  54	 143
  54	 149
  54	 166
  54	 168
  54	 173
  54	 180
  54	 181
  54	 182
  54	 187
  54	 202
  54	 217
  54	 225
  54	 227
  54	 242
  55	  56
  55	  70
  55	  86
  55	 105
  55	 115
  55	 117
  55	 123
  55	 127
  55	 133
  55	 143
  55	 166
  55	 167
  55	 174
  55	 177
  55	 185
  55	 190
  55	 191
  55	 201
  55	 210
  55	 231
  55	 239
  55	 242
  56	  64
  56	  65
  56	  68
  56	  84
  56	  94
  56	 101
  56	 106
  56	 110
  56	 112
  56	 120
  56	 132
  56	 137
  56	 162
  56	 169
  56	 176
  56	 184
  56	 200
  56	 218
  56	 219
  56	 229
  56	 246
  57	  60
  57	  74
  57	  80
  57	 109
  57	 142
  57	 146
  57	 168
  57	 169
  57	 178
  57	 183
  57	 186
  57	 221
  57	 222
  57	 231
  57	 240
  58	  94
  58	 106
  58	 111
  58	 114
  58	 125
  58	 129
  58	 135
  58	 142
  58	 146
  58	 158
  58	 165
  58	 167
  58	 181
  58	 191
  58	 219
  58	 224
  58	 229
  58	 248
  59	  71
  59	  81
  59	 100
  59	 108
  59	 110
  59	 113
  59	 116
  59	 174
  59	 183
  59	 185
  59	 202
  59	 205
  59	 241
  59	 245
  60	  66
  60	  72
  60	  80
  60	  82
  60	  89
  60	  95
  60	  98
  60	 104
  60	 110
  60	 111
  60	 128
  60	 140
  60	 166
  60	 173
  60	 206
  60	 218
  60	 221
  60	 242
  60	 249
  61	  70
  61	  86
  61	 104
  61	 110
  61	 112
  61	 117
  61	 118
  61	 121
  61	 125
  61	 149
  61	 153
  61	 162
  61	 177
  61	 178
  61	 180
  61	 183
  61	 192
  61	 221
  61	 228
  61	 229
  61	 236
  61	 241
  62	  80
  62	  83
  62	  97
  62	 117
  62	 121
  62	 122
  62	 132
  62	 139
  62	 150
  62	 174
  62	 204
  62	 242
  62	 245
  62	 247
  63	  70
  63	  74
  63	  82
  63	  85
  63	  94
  63	 105
  63	 122
  63	 139
  63	 146
  63	 152
  63	 159
  63	 168
  63	 169
  63	 177
  63	 185
  63	 190
  63	 196
  63	 204
  63	 225
  63	 234
  63	 238
  63	 246
  64	  82
  64	 108
  64	 135
  64	 147
  64	 152
  64	 174
  64	 183
  64	 192
  64	 209
  64	 226
  64	 228
  64	 248
  65	  75
  65	  77
  65	  84
  65	  95
  65	  99
  65	 120
  65	 122
  65	 137
  65	 139
  65	 165
  65	 172
  65	 189
  65	 206
  65	 209
  65	 212
  65	 220
  65	 230
  65	 232
  65	 239
  65	 240
  65	 241
  65	 243
  66	  68
  66	  71
  66	  93
  66	  98
  66	 103
  66	 121
  66	 124
  66	 146
  66	 154
  66	 156
  66	 160
  66	 166
  66	 181
  66	 208
  66	 209
  66	 217
  66	 228
  66	 236
  67	  69
  67	  87
  67	  93
  67	 105
  67	 111
  67	 141
  67	 142
  67	 147
  67	 162
  67	 168
  67	 170
  67	 178
  67	 186
  67	 218
  67	 231
  67	 232
  67	 233
  67	 236
  67	 238
  67	 241
  67	 243
  68	  82
  68	 110
  68	 133
  68	 140
  68	 158
  68	 164
  68	 168
  68	 220
  68	 223
  68	 227
  68	 233
  69	  79
  69	  91
  69	 102
  69	 110
  69	 125
  69	 149
  69	 151
  69	 166
  69	 168
  69	 170
  69	 174
  69	 177
  69	 181
  69	 188
  69	 224
  70	  80
  70	  81
  70	  82
  70	  84
  70	  87
  70	 119
  70	 128
  70	 135
  70	 158
  70	 160
  70	 169
  70	 183
  70	 185
  70	 186
  70	 192
  70	 202
  70	 218
  70	 228
  71	  73
  71	  75
  71	  82
  71	  84
  71	  99
  71	 100
  71	 137
  71	 144
  71	 157
  71	 167
  71	 169
  71	 176
  71	 202
  71	 222
  71	 229
  71	 242
  71	 247
  72	  74
  72	  76
  72	  86
  72	  97
  72	 103
  72	 122
  72	 124
  72	 125
  72	 133
  72	 141
  72	 153
  72	 158
  72	 160
  72	 182
  72	 184
  72	 192
  72	 231
  72	 237
  72	 239
  73	  95
  73	  96
  73	 116
  73	 130
  73	 139
  73	 144
  73	 188
  73	 215
  73	 216
  73	 232
  74	  82
  74	  86
  74	  87
  74	 103
  74	 104
  74	 117
  74	 120
  74	 132
  74	 138
  74	 145
  74	 146
  74	 154
  74	 169
  74	 189
  74	 195
  74	 196
  74	 204
  74	 212
  75	  80
  75	  83
  75	  84
  75	  97
  75	 101
  75	 102
  75	 109
  75	 110
  75	 113
  75	 118
  75	 125
  75	 127
  75	 132
  75	 145
  75	 151
  75	 153
  75	 165
  75	 171
  75	 184
  75	 244
  76	 101
  76	 109
  76	 116
  76	 118
  76	 126
  76	 131
  76	 132
  76	 134
  76	 140
  76	 146
  76	 148
  76	 152
  76	 157
  76	 158
  76	 160
  76	 163
  76	 164
  76	 235
  76	 242
  76	 248
  77	 100
  77	 122
  77	 128
  77	 129
  77	 154
  77	 159
  77	 163
  77	 168
  77	 173
  77	 182
  77	 185
  77	 188
  77	 207
  77	 213
  77	 215
  77	 217
  77	 222
  77	 236
  77	 239
  77	 245
  77	 248
  78	  85
  78	  87
  78	  92
  78	  97
  78	 111
  78	 124
  78	 129
  78	 131
  78	 153
  78	 167
  78	 170
  78	 200
  78	 216
  78	 222
  78	 223
  78	 226
  78	 234
  78	 238
  79	  87
  79	  99
  79	 103
  79	 111
  79	 123
  79	 126
  79	 147
  79	 153
  79	 175
  79	 178
  79	 180
  79	 191
  79	 201
  79	 202
  79	 237
  79	 245
  80	  81
  80	  91
  80	 122
  80	 142
  80	 147
  80	 152
  80	 153
  80	 165
  80	 168
  80	 173
  80	 175
  80	 188
  80	 190
  80	 200
  80	 202
  80	 210
  80	 211
  80	 230
  81	  86
  81	  89
  81	  97
  81	 100
  81	 103
  81	 137
  81	 141
  81	 146
  81	 148
  81	 167
  81	 197
  81	 202
  81	 213
  81	 214
  81	 224
  81	 227
  81	 229
  81	 230
  81	 243
  81	 249
  82	 106
  82	 107
  82	 119
  82	 120
  82	 130
  82	 136
  82	 137
  82	 141
  82	 171
  82	 172
  82	 178
  82	 190
  82	 191
  82	 199
  82	 215
  82	 222
  82	 231
  82	 239
  83	  88
  83	 110
  83	 117
  83	 126
  83	 137
  83	 141
  83	 155
  83	 158
  83	 174
  83	 185
  83	 193
  83	 201
  83	 203
  83	 207
  83	 236
  84	  87
  84	  96
  84	 108
  84	 123
  84	 134
  84	 139
  84	 150
  84	 151
  84	 184
  84	 199
  84	 200
  84	 203
  84	 207
  84	 209
  84	 211
  84	 214
  84	 215
  84	 227
  84	 234
  84	 243
  85	 118
  85	 120
  85	 121
  85	 151
  85	 170
  85	 174
  85	 192
  85	 205
  85	 218
  85	 241
  85	 248
  86	 111
  86	 115
  86	 126
  86	 149
  86	 167
  86	 182
  86	 184
  86	 207
  86	 229
  86	 234
  86	 240
  86	 241
  86	 246
  87	  91
  87	  95
  87	 101
  87	 106
  87	 113
  87	 116
  87	 129
  87	 130
  87	 133
  87	 134
  87	 135
  87	 137
  87	 140
  87	 154
  87	 168
  87	 192
  87	 197
  87	 211
  87	 218
  87	 223
  87	 231
  87	 234
  87	 237
  87	 246
  88	  89
  88	  90
  88	  92
  88	  96
  88	 113
  88	 129
  88	 139
  88	 157
  88	 164
  88	 168
  88	 179
  88	 207
  88	 211
  88	 224
  89	  94
  89	 111
  89	 149
  89	 154
  89	 156
  89	 158
  89	 159
  89	 168
  89	 192
  89	 193
  89	 216
  89	 220
  89	 235
  89	 243
  89	 249
  90	  92
  90	 102
  90	 105
  90	 129
  90	 130
  90	 132
  90	 133
  90	 140
  90	 147
  90	 162
  90	 165
  90	 203
  90	 206
  90	 221
  90	 243
  91	 105
  91	 107
  91	 125
  91	 126
  91	 133
  91	 134
  91	 146
  91	 160
  91	 181
  91	 204
  91	 211
  91	 216
  91	 221
  91	 227
  91	 248
  92	 103
  92	 120
  92	 129
  92	 134
  92	 140
  92	 147
  92	 151
  92	 152
  92	 156
  92	 165
  92	 167
  92	 171
  92	 185
  92	 188
  92	 193
  92	 207
  92	 239
  93	  94
  93	  99
  93	 103
  93	 107
  93	 113
  93	 117
  93	 140
  93	 141
  93	 151
  93	 157
  93	 168
  93	 176
  93	 187
  93	 209
  93	 235
  93	 239
  94	 104
  94	 109
  94	 114
  94	 132
  94	 133
  94	 142
  94	 143
  94	 150
  94	 155
  94	 156
  94	 171
  94	 174
  94	 194
  94	 201
  94	 208
  94	 209
  94	 221
  94	 241
  94	 243
  95	  96
  95	 104
  95	 111
  95	 117
  95	 118
  95	 135
  95	 149
  95	 168
  95	 175
  95	 183
  95	 187
  95	 191
  95	 199
  95	 201
  95	 205
  95	 239
  95	 244
  96	  99
  96	 107
  96	 109
  96	 114
  96	 117
  96	 118
  96	 127
  96	 134
  96	 141
  96	 142
  96	 143
  96	 194
  96	 196
  96	 240
  97	 105
  97	 108
  97	 111
  97	 125
  97	 132
  97	 141
  97	 148
  97	 174
  97	 177
  97	 185
  97	 188
  97	 242
  98	 114
  98	 119
  98	 140
  98	 146
  98	 161
  98	 165
  98	 168
  98	 177
  98	 188
  98	 192
  98	 193
  98	 194
  98	 195
  98	 231
  98	 232
  98	 241
  98	 246
  99	 104
  99	 108
  99	 157
  99	 162
  99	 164
  99	 193
  99	 212
  99	 215
  99	 224
  99	 236
  99	 238
  99	 247
  99	 249
 100	 107
 100	 120
 100	 122
 100	 135
 100	 136
 100	 139
 100	 146
 100	 148
 100	 150
 100	 155
 100	 165
 100	 177
 100	 184
 100	 186
 100	 188
 100	 212
 100	 214
 100	 227
 100	 229
 100	 232
 100	 245
 100	 246
 100	 249
 101	 120
 101	 136
 101	 158
 101	 183
 101	 218
 101	 226
 101	 229
 101	 244
 102	 107
 102	 129
 102	 146
 102	 151
 102	 154
 102	 168
 102	 183
 102	 192
 102	 200
 102	 227
 102	 228
 102	 249
 103	 116
 103	 120
 103	 131
 103	 136
 103	 146
 103	 148
 103	 150
 103	 151
 103	 152
 103	 180
 103	 187
 103	 192
 103	 216
 103	 221
 103	 223
 103	 233
 103	 236
 103	 238
 103	 243
 104	 115
 104	 120
 104	 121
 104	 135
 104	 139
 104	 148
 104	 154
 104	 169
 104	 178
 104	 191
 104	 198
 104	 230
 105	 109
 105	 112
 105	 119
 105	 127
 105	 128
 105	 132
 105	 133
 105	 159
 105	 161
 105	 165
 105	 173
 105	 176
 105	 178
 105	 181
 105	 199
 105	 200
 105	 202
 105	 204
 105	 210
 105	 217
 105	 226
 105	 241
 105	 247
 106	 121
 106	 131
 106	 132
 106	 133
 106	 180
 106	 201
 106	 206
 106	 233
 106	 242
 106	 243
 107	 114
 107	 116
 107	 119
 107	 144
 107	 146
 107	 149
 107	 171
 107	 176
 107	 193
 107	 196
 107	 203
 107	 232
 108	 110
 108	 114
 108	 117
 108	 123
 108	 128
 108	 141
 108	 147
 108	 154
 108	 156
 108	 173
 108	 176
 108	 193
 108	 224
 108	 226
 109	 115
 109	 150
 109	 151
 109	 180
 109	 184
 109	 202
 109	 214
 109	 215
 109	 232
 110	 117
 110	 131
 110	 145
 110	 155
 110	 162
 110	 164
 110	 176
 110	 191
 110	 209
 110	 212
 110	 220
 110	 226
 110	 236
 110	 249
 111	 123
 111	 129
 111	 140
 111	 157
 111	 166
 111	 182
 111	 188
 111	 192
 111	 206
 111	 207
 111	 220
 111	 226
 111	 229
 111	 235
 112	 121
 112	 133
 112	 138
 112	 160
 112	 164
 112	 170
 112	 228
 112	 233
 112	 238
 112	 248
 113	 114
 113	 115
 113	 116
 113	 117
 113	 121
 113	 128
 113	 151
 113	 162
 113	 176
 113	 182
 113	 185
 113	 202
 113	 210
 113	 213
 113	 217
 113	 222
 113	 231
 113	 249
 114	 118
 114	 122
 114	 130
 114	 145
 114	 152
 114	 156
 114	 158
 114	 161
 114	 169
 114	 176
 114	 179
 114	 189
 114	 195
 114	 198
 114	 200
 114	 206
 114	 217
 114	 218
 114	 227
 114	 229
 114	 240
 114	 241
 115	 120
 115	 122
 115	 127
 115	 128
 115	 137
 115	 144
 115	 183
 115	 199
 115	 207
 115	 210
 116	 127
 116	 129
 116	 150
 116	 184
 116	 189
 116	 218
 116	 219
 116	 224
 116	 233
 116	 238
 116	 245
 117	 139
 117	 162
 117	 191
 117	 223
 117	 228
 117	 232
 117	 234
 117	 240
 118	 119
 118	 120
 118	 122
 118	 175
 118	 178
 118	 186
 118	 204
 118	 205
 118	 212
 118	 215
 118	 230
 118	 237
 119	 130
 119	 134
 119	 140
 119	 153
 119	 162
 119	 186
 119	 194
 119	 198
 119	 200
 119	 211
 119	 236
 119	 245
 120	 133
 120	 139
 120	 157
 120	 160
 120	 165
 120	 168
 120	 180
 120	 193
 120	 209
 120	 214
 120	 225
 120	 247
 121	 137
 121	 150
 121	 170
 121	 177
 121	 178
 121	 192
 121	 200
 121	 207
 121	 220
 121	 237
 121	 242
 121	 245
 122	 146
 122	 148
 122	 160
 122	 161
 122	 167
 122	 171
 122	 180
 122	 193
 122	 197
 122	 210
 122	 222
 122	 228
 122	 232
 122	 245
 123	 125
 123	 140
 123	 154
 123	 188
 123	 189
 123	 193
 123	 237
 123	 239
 123	 240
 123	 242
 123	 245
 123	 249
 124	 131
 124	 148
 124	 161
 124	 189
 124	 193
 124	 194
 124	 198
 124	 230
 124	 233
 124	 236
 124	 239
 124	 244
 125	 126
 125	 155
 125	 193
 125	 202
 125	 233
 126	 134
 126	 138
 126	 141
 126	 151
 126	 163
 126	 167
 126	 168
 126	 171
 126	 206
 126	 226
 126	 241
 126	 247
 127	 149
 127	 153
 127	 173
 127	 174
 127	 175
 127	 185
 127	 192
 127	 197
 127	 200
 127	 228
 127	 247
 128	 139
 128	 166
 128	 185
 128	 203
 128	 216
 128	 226
 128	 234
 128	 246
 129	 132
 129	 133
 129	 152
 129	 159
 129	 172
 129	 183
 129	 185
 129	 186
 129	 206
 129	 211
 129	 218
 129	 219
 129	 221
 129	 228
 129	 229
 129	 237
 129	 246
 129	 247
 130	 149
 130	 152
 130	 153
 130	 157
 130	 180
 130	 187
 130	 193
 130	 198
 130	 204
 130	 216
 130	 217
 130	 227
 130	 235
 130	 237
 130	 245
 131	 135
 131	 143
 131	 153
 131	 174
 131	 189
 131	 198
 131	 211
 131	 244
 132	 139
 132	 162
 132	 166
 132	 172
 132	 178
 132	 181
 132	 185
 132	 186
 132	 202
 132	 234
 132	 241
 132	 248
 133	 151
 133	 159
 133	 165
 133	 167
 133	 173
 133	 188
 133	 200
 133	 206
 133	 217
 133	 219
 133	 220
 133	 221
 133	 244
 133	 245
 134	 137
 134	 157
 134	 162
 134	 169
 134	 175
 134	 179
 134	 196
 134	 217
 134	 248
 135	 145
 135	 154
 135	 174
 135	 175
 135	 178
 135	 179
 135	 196
 135	 199
 136	 142
 136	 151
 136	 157
 136	 194
 136	 203
 136	 217
 136	 218
 136	 223
 136	 231
 137	 147
 137	 157
 137	 158
 137	 165
 137	 170
 137	 176
 137	 180
 137	 182
 137	 186
 137	 193
 137	 198
 137	 206
 137	 223
 137	 232
 137	 238
 138	 139
 138	 162
 138	 200
 138	 201
 138	 211
 138	 215
 138	 216
 138	 231
 138	 232
 138	 235
 138	 237
 138	 238
 139	 145
 139	 148
 139	 152
 139	 153
 139	 160
 139	 176
 139	 177
 139	 193
 139	 194
 139	 219
 139	 243
 140	 161
 140	 208
 140	 211
 140	 214
 140	 233
 140	 243
 141	 149
 141	 166
 141	 171
 141	 176
 141	 196
 141	 208
 141	 247
 142	 155
 142	 156
 142	 161
 142	 172
 142	 184
 142	 185
 142	 223
 142	 226
 142	 227
 143	 145
 143	 155
 143	 165
 143	 171
 143	 173
 143	 174
 143	 187
 143	 198
 143	 211
 143	 212
 143	 213
 143	 214
 143	 242
 143	 247
 144	 146
 144	 166
 144	 169
 144	 189
 144	 191
 144	 209
 144	 225
 144	 226
 144	 236
 144	 247
 145	 146
 145	 169
 145	 179
 145	 181
 145	 219
 145	 220
 145	 223
 145	 231
 145	 241
 145	 248
 146	 156
 146	 201
 146	 203
 146	 215
 146	 222
 146	 225
 146	 238
 146	 244
 146	 245
 146	 247
 147	 172
 147	 180
 147	 184
 147	 187
 147	 189
 147	 193
 147	 201
 147	 235
 147	 244
 147	 246
 147	 247
 148	 151
 148	 173
 148	 192
 148	 197
 148	 204
 148	 206
 148	 218
 148	 227
 148	 239
 148	 242
 148	 247
 149	 156
 149	 157
 149	 160
 149	 163
 149	 167
 149	 170
 149	 175
 149	 194
 149	 209
 149	 214
 149	 238
 150	 151
 150	 164
 150	 171
 150	 173
 150	 180
 150	 208
 150	 213
 150	 227
 150	 229
 150	 234
 150	 235
 151	 167
 151	 173
 151	 207
 151	 225
 151	 232
 151	 239
 152	 162
 152	 164
 152	 168
 152	 171
 152	 178
 152	 185
 152	 189
 152	 200
 152	 213
 152	 220
 152	 229
 153	 174
 153	 201
 153	 207
 153	 218
 153	 219
 153	 220
 153	 224
 153	 229
 153	 236
 153	 237
 153	 238
 153	 244
 153	 246
 154	 170
 154	 177
 154	 206
 154	 212
 154	 222
 154	 229
 154	 245
 155	 160
 155	 189
 155	 208
 155	 215
 155	 216
 155	 226
 155	 227
 155	 234
 156	 175
 156	 190
 156	 192
 156	 201
 156	 215
 156	 228
 156	 229
 156	 230
 156	 243
 156	 245
 156	 246
 157	 161
 157	 166
 157	 168
 157	 188
 157	 194
 157	 198
 157	 201
 157	 214
 157	 223
 157	 249
 158	 163
 158	 165
 158	 169
 158	 192
 158	 195
 158	 226
 158	 242
 158	 244
 158	 245
 158	 247
 159	 169
 159	 172
 159	 193
 159	 202
 159	 208
 159	 213
 159	 220
 159	 222
 159	 232
 159	 233
 160	 164
 160	 186
 160	 196
 160	 205
 160	 217
 160	 219
 160	 227
 160	 230
 160	 232
 160	 242
 160	 243
 160	 248
 161	 169
 161	 200
 161	 203
 161	 217
 161	 227
 161	 228
 161	 245
 161	 246
 162	 166
 162	 181
 162	 190
 162	 195
 162	 221
 162	 222
 162	 229
 162	 236
 162	 239
 162	 240
 163	 168
 163	 170
 163	 209
 163	 221
 163	 226
 163	 238
 164	 204
 164	 213
 164	 227
 164	 234
 164	 241
 164	 248
 165	 183
 165	 195
 165	 198
 165	 202
 165	 205
 166	 178
 166	 181
 166	 211
 166	 225
 166	 247
 167	 178
 167	 204
 167	 205
 167	 208
 167	 210
 167	 213
 167	 214
 167	 221
 167	 223
 167	 230
 167	 243
 168	 187
 168	 200
 168	 204
 168	 229
 168	 235
 169	 183
 169	 195
 169	 205
 169	 212
 169	 216
 169	 218
 170	 177
 170	 179
 170	 190
 170	 204
 170	 231
 170	 244
 170	 247
 171	 175
 171	 181
 171	 191
 171	 194
 171	 205
 171	 207
 171	 209
 171	 218
 171	 220
 171	 245
 171	 246
 172	 174
 172	 177
 172	 180
 172	 209
 172	 230
 172	 232
 172	 243
 173	 174
 173	 191
 173	 192
 173	 193
 173	 196
 173	 199
 173	 240
 174	 177
 174	 195
 174	 198
 174	 201
 174	 206
 174	 208
 174	 213
 174	 222
 174	 233
 174	 241
 175	 177
 175	 206
 175	 211
 175	 213
 175	 227
 175	 240
 175	 249
 176	 178
 176	 184
 176	 192
 176	 193
 176	 211
 176	 214
 176	 216
 176	 226
 176	 231
 176	 236
 176	 239
 176	 244
 177	 184
 177	 192
 177	 194
 177	 197
 177	 208
 177	 210
 177	 236
 177	 241
 177	 244
 177	 249
 178	 179
 178	 194
 178	 201
 178	 206
 178	 220
 178	 222
 178	 234
 178	 237
 178	 240
 178	 243
 179	 181
 179	 182
 179	 183
 179	 186
 179	 222
 179	 223
 179	 224
 179	 226
 179	 229
 179	 243
 179	 248
 180	 186
 180	 195
 180	 196
 180	 202
 180	 204
 180	 212
 180	 220
 180	 227
 180	 231
 180	 238
 180	 241
 181	 189
 181	 223
 181	 224
 182	 183
 182	 185
 182	 194
 182	 205
 182	 218
 182	 220
 182	 223
 182	 224
 182	 230
 182	 236
 183	 231
 183	 234
 183	 240
 184	 208
 184	 211
 184	 213
 184	 235
 184	 245
 185	 186
 185	 187
 185	 191
 185	 215
 185	 235
 185	 237
 186	 193
 186	 194
 186	 220
 186	 221
 186	 222
 186	 223
 186	 226
 186	 228
 187	 188
 187	 238
 187	 240
 187	 242
 187	 249
 188	 205
 188	 207
 188	 215
 189	 200
 189	 202
 189	 215
 189	 219
 189	 221
 189	 245
 190	 196
 190	 202
 190	 210
 190	 221
 191	 208
 191	 210
 191	 215
 191	 225
 192	 195
 192	 202
 192	 207
 192	 245
 193	 207
 193	 230
 193	 237
 193	 244
 194	 199
 194	 216
 194	 228
 194	 234
 195	 202
 195	 203
 195	 205
 195	 225
 195	 234
 195	 245
 196	 198
 196	 200
 196	 206
 196	 234
 196	 241
 197	 224
 197	 240
 198	 203
 198	 222
 198	 230
 198	 237
 198	 246
 198	 249
 199	 242
 200	 209
 200	 211
 200	 226
 200	 228
 201	 212
 201	 214
 201	 224
 201	 226
 201	 233
 201	 239
 202	 205
 202	 210
 202	 212
 202	 214
 202	 216
 202	 219
 202	 221
 202	 228
 202	 240
 202	 241
 202	 243
 203	 209
 203	 227
 203	 228
 203	 233
 203	 239
 203	 247
 204	 208
 204	 214
 204	 217
 204	 233
 205	 217
 205	 223
 205	 227
 205	 240
 205	 246
 206	 234
 206	 237
 206	 246
 207	 215
 207	 225
 207	 249
 208	 215
 208	 237
 208	 245
 209	 229
 210	 211
 210	 217
 210	 224
 210	 227
 210	 230
 210	 234
 210	 238
 210	 241
 210	 242
 210	 245
 211	 214
 211	 227
 211	 230
 211	 232
 212	 226
 213	 215
 213	 231
 213	 240
 214	 223
 214	 233
 214	 236
 214	 240
 214	 241
 214	 243
 215	 230
 216	 224
 216	 227
 216	 228
 216	 233
 216	 246
 217	 219
 217	 225
 217	 234
 217	 240
 217	 243
 218	 249
 219	 224
 219	 228
 219	 233
 219	 248
 219	 249
 220	 239
 220	 244
 221	 229
 221	 243
 222	 232
 222	 237
 222	 243
 222	 249
 223	 225
 223	 228
 223	 244
 223	 249
 224	 226
 224	 247
 225	 226
 225	 242
 227	 235
 227	 242
 227	 247
 228	 238
 229	 231
 229	 232
 229	 243
 229	 245
 230	 232
 230	 241
 230	 243
 231	 232
 231	 234
 232	 234
 233	 242
 234	 243
 234	 248
 235	 240
 235	 246
 235	 248
 236	 240
 238	 244
 238	 248
 239	 242
 239	 243
 239	 246
 241	 249
 242	 246
 242	 247
 246	 249
;
